n_res = 4;
rc = [ 9, 25, 17, 15 ];
n_tasks = 30;
d = [ 10, 9, 3, 5, 5, 1, 1, 5, 5, 6, 4, 10, 4, 10, 1, 5, 4, 8, 3, 8, 4, 1, 4, 4, 1, 7, 4, 2, 1, 2 ];
rr = [| 0, 2, 0, 3, 0, 0, 0, 0, 0, 0, 6, 0, 0, 0, 0, 0, 0, 0, 0, 0, 0, 0, 0, 0, 0, 0, 0, 0, 0, 0
      | 9, 0, 6, 0, 0, 0, 7, 0, 5, 0, 0, 0, 4, 0, 0, 8, 5, 0, 0, 10, 6, 0, 0, 10, 8, 0, 0, 0, 4, 0
      | 0, 0, 0, 0, 4, 4, 0, 10, 0, 3, 0, 0, 0, 0, 5, 0, 0, 0, 5, 0, 0, 4, 1, 0, 0, 7, 0, 0, 0, 0
      | 0, 0, 0, 0, 0, 0, 0, 0, 0, 0, 0, 7, 0, 7, 0, 0, 0, 6, 0, 0, 0, 0, 0, 0, 0, 0, 6, 10, 0, 5 |];
suc = [ { 2 }, 
        { 3 }, 
        { 4 }, 
        { 5 }, 
        { 6 }, 
        { 7 }, 
        { 8 }, 
        { 9 }, 
        { 10 }, 
        { 11 }, 
        { 12 }, 
        { 13 }, 
        { 14 }, 
        { 15 }, 
        { 16 }, 
        { 17 }, 
        { 18 }, 
        { 19 }, 
        { 20 }, 
        { 21 }, 
        { 22 }, 
        { 23 }, 
        { 24 }, 
        { 25 }, 
        { 26 }, 
        { 27 }, 
        { 28 }, 
        { 29 }, 
        { 30 }, 
        {  }]; 
